TCS_Benchmarks/redos_fix/corpus2_output_distinct_3837_3836_8_0.smt2
(set-logic QF_S)
(declare-const x String)
(assert (str.in.re x (re.inter  (re.++ (re.* (re.union (re.range "\u{00}" "\u{09}") (re.range "\u{0b}" "\u{0c}") (re.range "\u{0e}" "\u{84}") (re.range "\u{86}" "\u{ff}")) ) (re.* (re.union (re.range "\u{00}" "\u{09}") (re.range "\u{0b}" "\u{0c}") (re.range "\u{0e}" "\u{84}") (re.range "\u{86}" "\u{ff}")) ))  (re.++ (re.* (re.union (re.range "\u{00}" "\u{09}") (re.range "\u{0b}" "\u{0c}") (re.range "\u{0e}" "\u{84}") (re.range "\u{86}" "\u{ff}")) ) (re.++  (re.++ (re.comp  (re.union  (str.to_re "\u{0A}") (re.union (re.range "\u{30}" "\u{39}") (re.range "\u{61}" "\u{7a}")))) (re.++  (str.to.re "\u{70}") (re.++  (str.to.re "\u{6d}") (re.++ (re.+  (str.to.re "\u{20}") ) (re.++  (str.to.re "\u{69}") (re.++  (str.to.re "\u{6e}") (re.++  (str.to.re "\u{73}") (re.++  (str.to.re "\u{74}") (re.++  (str.to.re "\u{61}") (re.++  (str.to.re "\u{6c}") (re.++  (str.to.re "\u{6c}") (re.comp  (re.union  (str.to_re "\u{0A}") (re.union (re.range "\u{30}" "\u{39}") (re.range "\u{61}" "\u{7a}"))))))))))))))) (re.* (re.union (re.range "\u{00}" "\u{09}") (re.range "\u{0b}" "\u{0c}") (re.range "\u{0e}" "\u{84}") (re.range "\u{86}" "\u{ff}")) ))) )))
(check-sat)
(get-model)