TCS_Benchmarks/redos_fix/corpus2_output_distinct_3837_3836_8_0.txt
(.*)(.*)
(.*)([^\n0-9a-z]pm +install[^\n0-9a-z])(.*)